certificates/rado_a9_c148_N23.cnf
c Rad2 upper bound instance: x1 + 9*x2 - x3 = 148, interval [1,23]
p cnf 23 112
1 6 17 0
-1 -6 -17 0
1 15 18 0
-1 -15 -18 0
2 7 17 0
-2 -7 -17 0
2 16 18 0
-2 -16 -18 0
3 8 17 0
-3 -8 -17 0
3 17 18 0
-3 -17 -18 0
4 9 17 0
-4 -9 -17 0
4 18 0
-4 -18 0
1 5 16 0
-1 -5 -16 0
5 10 17 0
-5 -10 -17 0
5 18 19 0
-5 -18 -19 0
2 6 16 0
-2 -6 -16 0
6 11 17 0
-6 -11 -17 0
6 18 20 0
-6 -18 -20 0
3 7 16 0
-3 -7 -16 0
7 12 17 0
-7 -12 -17 0
7 18 21 0
-7 -18 -21 0
4 8 16 0
-4 -8 -16 0
8 13 17 0
-8 -13 -17 0
8 18 22 0
-8 -18 -22 0
5 9 16 0
-5 -9 -16 0
9 14 17 0
-9 -14 -17 0
9 18 23 0
-9 -18 -23 0
6 10 16 0
-6 -10 -16 0
10 15 17 0
-10 -15 -17 0
7 11 16 0
-7 -11 -16 0
11 16 17 0
-11 -16 -17 0
8 12 16 0
-8 -12 -16 0
12 17 0
-12 -17 0
9 13 16 0
-9 -13 -16 0
13 17 18 0
-13 -17 -18 0
1 14 15 0
-1 -14 -15 0
10 14 16 0
-10 -14 -16 0
14 17 19 0
-14 -17 -19 0
2 15 0
-2 -15 0
11 15 16 0
-11 -15 -16 0
15 17 20 0
-15 -17 -20 0
3 15 16 0
-3 -15 -16 0
12 16 0
-12 -16 0
16 17 21 0
-16 -17 -21 0
4 15 17 0
-4 -15 -17 0
13 16 17 0
-13 -16 -17 0
17 22 0
-17 -22 0
5 15 18 0
-5 -15 -18 0
14 16 18 0
-14 -16 -18 0
17 18 23 0
-17 -18 -23 0
6 15 19 0
-6 -15 -19 0
15 16 19 0
-15 -16 -19 0
7 15 20 0
-7 -15 -20 0
16 20 0
-16 -20 0
8 15 21 0
-8 -15 -21 0
9 15 22 0
-9 -15 -22 0
16 18 22 0
-16 -18 -22 0
1 14 23 0
-1 -14 -23 0
10 15 23 0
-10 -15 -23 0
16 19 23 0
-16 -19 -23 0
