certificates/rado_a9_c148_N23.drat
-18 17 -23 0
17 -23 0
d -18 17 -23 0
-23 0
18 -17 0
-18 -16 0
d -18 -2 -16 0
-17 0
12 0
22 0
18 0
-16 0
-4 0
-8 0
20 0
19 0
21 0
11 0
13 0
15 0
9 0
0
